u120_04
150 120 50 52
42 0
98 0
27 1
21 1
71 1
71 2
78 2
76 3
57 3
24 1
91 4
84 5
35 4
25 5
77 6
96 7
97 8
89 9
30 5
86 10
81 11
39 6
75 12
66 11
85 13
36 7
60 9
56 10
50 8
75 14
75 15
37 12
87 16
95 17
21 4
99 18
42 13
57 14
31 6
37 12
42 15
40 16
69 19
91 20
45 17
97 21
84 22
90 23
52 19
43 18
68 24
53 20
37 21
65 22
79 24
73 25
92 26
87 27
20 13
20 15
73 25
42 23
52 26
20 16
24 19
76 28
71 28
72 29
21 27
21 27
82 30
92 31
78 32
87 33
50 29
41 30
31 31
73 34
89 35
59 32
88 36
40 33
71 34
69 37
45 35
57 36
49 37
68 38
84 39
32 38
69 40
77 40
92 41
98 42
57 39
39 38
32 41
23 29
99 43
91 44
48 42
21 30
70 45
43 43
73 45
69 46
65 46
57 44
67 47
28 37
84 48
42 47
61 48
92 49
82 50
34 47
74 51
55 49
60 50
69 51